% demand
num_movements = 23;
loading_factor = [1800, 1400, 1100, 1600, 1150, 1150, 1050, 1050, 1950, 850, 850, 1800, 1350, 1550, 800, 1050, 800, 900, 1550, 1400, 1900, 1650, 800];
pickup_time = [0, 1, 1, 1, 1, 1, 3, 3, 4, 4, 4, 6, 8, 8, 8, 8, 9, 9, 10, 10, 10, 11, 12];
delivery_time = [1, 2, 2, 3, 2, 2, 5, 5, 5, 5, 5, 7, 12, 10, 10, 9, 12, 10, 12, 12, 11, 13, 13];

% transporter definition
total_capacity = 7000;
num_decks = 3;
capacity = [3000, 1000, 3000];

% ways out of decks
num_ways_out = 1;
paths_out = array3d(decks, ways_out, decks, [
% ways out of deck d1
2, 3, 0, 

% ways out of deck d2
3, 0, 0, 

% ways out of deck d3
0, 0, 0,	

]);

